p td 80 80
0 1
0 79
1 2
1 32
2 59
3 50
4 5
5 6
6 7
7 8
7 16
8 9
8 19
9 10
10 11
11 12
12 13
12 47
13 14
14 15
15 16
15 72
16 34
17 18
18 19
20 21
21 22
22 23
23 24
24 71
25 26
26 27
27 28
28 29
29 30
30 31
31 32
31 78
33 34
34 56
35 36
36 37
37 38
38 39
39 40
40 41
41 42
42 43
43 44
44 45
45 46
46 47
48 49
48 52
49 50
50 51
50 60
51 52
53 54
54 55
55 56
57 58
58 59
59 60
61 62
62 63
63 64
64 65
65 66
66 67
67 68
68 69
69 70
70 71
71 72
73 74
74 75
75 76
76 77
77 78
